Minimize
 obj: 0 X_0_1
Subject To
 out_0:
  + 1 X_0_1 + 1 X_0_2 + 1 X_0_3 + 1 X_0_4
  = 1
 in_0:
  + 1 X_1_0 + 1 X_2_0 + 1 X_3_0 + 1 X_4_0
  = 1
 out_1:
  + 1 X_1_0 + 1 X_1_2 + 1 X_1_3 + 1 X_1_4
  = 1
 in_1:
  + 1 X_0_1 + 1 X_2_1 + 1 X_3_1 + 1 X_4_1
  = 1
 out_2:
  + 1 X_2_0 + 1 X_2_1 + 1 X_2_3 + 1 X_2_4
  = 1
 in_2:
  + 1 X_0_2 + 1 X_1_2 + 1 X_3_2 + 1 X_4_2
  = 1
 out_3:
  + 1 X_3_0 + 1 X_3_1 + 1 X_3_2 + 1 X_3_4
  = 1
 in_3:
  + 1 X_0_3 + 1 X_1_3 + 1 X_2_3 + 1 X_4_3
  = 1
 out_4:
  + 1 X_4_0 + 1 X_4_1 + 1 X_4_2 + 1 X_4_3
  = 1
 in_4:
  + 1 X_0_4 + 1 X_1_4 + 1 X_2_4 + 1 X_3_4
  = 1
 mtz_1_2:
  + 1 U1 - 1 U2 + 4 X_1_2
  <= 3
 mtz_1_3:
  + 1 U1 - 1 U3 + 4 X_1_3
  <= 3
 mtz_1_4:
  + 1 U1 - 1 U4 + 4 X_1_4
  <= 3
 mtz_2_1:
  + 1 U2 - 1 U1 + 4 X_2_1
  <= 3
 mtz_2_3:
  + 1 U2 - 1 U3 + 4 X_2_3
  <= 3
 mtz_2_4:
  + 1 U2 - 1 U4 + 4 X_2_4
  <= 3
 mtz_3_1:
  + 1 U3 - 1 U1 + 4 X_3_1
  <= 3
 mtz_3_2:
  + 1 U3 - 1 U2 + 4 X_3_2
  <= 3
 mtz_3_4:
  + 1 U3 - 1 U4 + 4 X_3_4
  <= 3
 mtz_4_1:
  + 1 U4 - 1 U1 + 4 X_4_1
  <= 3
 mtz_4_2:
  + 1 U4 - 1 U2 + 4 X_4_2
  <= 3
 mtz_4_3:
  + 1 U4 - 1 U3 + 4 X_4_3
  <= 3
 obj1:
  + 440 X_0_1 + 595 X_0_2 + 876 X_0_3 + 686 X_0_4 + 440 X_1_0 + 692 X_1_2 + 720 X_1_3 + 399 X_1_4
  + 595 X_2_0 + 692 X_2_1 + 443 X_2_3 + 539 X_2_4 + 876 X_3_0 + 720 X_3_1 + 443 X_3_2 + 347 X_3_4
  + 686 X_4_0 + 399 X_4_1 + 539 X_4_2 + 347 X_4_3
  <= 1
 obj2:
  + 877 X_0_1 + 690 X_0_2 + 459 X_0_3 + 795 X_0_4 + 877 X_1_0 + 234 X_1_2 + 419 X_1_3 + 154 X_1_4
  + 690 X_2_0 + 234 X_2_1 + 268 X_2_3 + 270 X_2_4 + 459 X_3_0 + 419 X_3_1 + 268 X_3_2 + 340 X_3_4
  + 795 X_4_0 + 154 X_4_1 + 270 X_4_2 + 340 X_4_3
  <= 2
 obj3:
  + 303 X_0_1 + 824 X_0_2 + 1071 X_0_3 + 414 X_0_4 + 303 X_1_0 + 579 X_1_2 + 855 X_1_3 + 260 X_1_4
  + 824 X_2_0 + 579 X_2_1 + 288 X_2_3 + 420 X_2_4 + 1071 X_3_0 + 855 X_3_1 + 288 X_3_2 + 656 X_3_4
  + 414 X_4_0 + 260 X_4_1 + 420 X_4_2 + 656 X_4_3
  <= 3
 obj4:
  + 544 X_0_1 + 423 X_0_2 + 111 X_0_3 + 458 X_0_4 + 544 X_1_0 + 916 X_1_2 + 650 X_1_3 + 122 X_1_4
  + 423 X_2_0 + 916 X_2_1 + 320 X_2_3 + 806 X_2_4 + 111 X_3_0 + 650 X_3_1 + 320 X_3_2 + 557 X_3_4
  + 458 X_4_0 + 122 X_4_1 + 806 X_4_2 + 557 X_4_3
  <= 4
 obj5:
  + 832 X_0_1 + 628 X_0_2 + 450 X_0_3 + 897 X_0_4 + 832 X_1_0 + 326 X_1_2 + 684 X_1_3 + 471 X_1_4
  + 628 X_2_0 + 326 X_2_1 + 365 X_2_3 + 305 X_2_4 + 450 X_3_0 + 684 X_3_1 + 365 X_3_2 + 518 X_3_4
  + 897 X_4_0 + 471 X_4_1 + 305 X_4_2 + 518 X_4_3
  <= 5
 obj6:
  + 949 X_0_1 + 866 X_0_2 + 647 X_0_3 + 343 X_0_4 + 949 X_1_0 + 731 X_1_2 + 528 X_1_3 + 828 X_1_4
  + 866 X_2_0 + 731 X_2_1 + 294 X_2_3 + 1018 X_2_4 + 647 X_3_0 + 528 X_3_1 + 294 X_3_2 + 740 X_3_4
  + 343 X_4_0 + 828 X_4_1 + 1018 X_4_2 + 740 X_4_3
  <= 6
 obj7:
  + 803 X_0_1 + 303 X_0_2 + 270 X_0_3 + 492 X_0_4 + 803 X_1_0 + 634 X_1_2 + 553 X_1_3 + 1023 X_1_4
  + 303 X_2_0 + 634 X_2_1 + 144 X_2_3 + 767 X_2_4 + 270 X_3_0 + 553 X_3_1 + 144 X_3_2 + 669 X_3_4
  + 492 X_4_0 + 1023 X_4_1 + 767 X_4_2 + 669 X_4_3
  <= 7
Bounds
 1 <= U1 <= 4
 1 <= U2 <= 4
 1 <= U3 <= 4
 1 <= U4 <= 4
Binary
 X_0_1
 X_0_2
 X_0_3
 X_0_4
 X_1_0
 X_1_2
 X_1_3
 X_1_4
 X_2_0
 X_2_1
 X_2_3
 X_2_4
 X_3_0
 X_3_1
 X_3_2
 X_3_4
 X_4_0
 X_4_1
 X_4_2
 X_4_3
End
